p cnf 200 1110
-101 -34 0
-101 -3 0
-101 96 0
-101 -44 0
-101 -6 0
-101 8 0
-101 -92 0
-101 86 0
-101 78 0
-101 85 0
101 34 3 -96 44 6 -8 92 -86 -78 -85 0
-102 -83 0
-102 16 0
-102 92 0
-102 47 0
-102 -42 0
-102 3 0
-102 -72 0
-102 -59 0
-102 19 0
-102 -11 0
102 83 -16 -92 -47 42 -3 72 59 -19 11 0
-103 91 0
-103 27 0
-103 43 0
-103 2 0
-103 6 0
-103 88 0
-103 74 0
-103 25 0
-103 54 0
-103 -67 0
103 -91 -27 -43 -2 -6 -88 -74 -25 -54 67 0
-104 -35 0
-104 99 0
-104 15 0
-104 -33 0
-104 11 0
-104 -75 0
-104 95 0
-104 -57 0
-104 72 0
-104 54 0
104 35 -99 -15 33 -11 75 -95 57 -72 -54 0
-105 -49 0
-105 50 0
-105 -3 0
-105 79 0
-105 96 0
-105 35 0
-105 -87 0
-105 -6 0
-105 91 0
-105 64 0
105 49 -50 3 -79 -96 -35 87 6 -91 -64 0
-106 46 0
-106 -14 0
-106 60 0
-106 36 0
-106 37 0
-106 56 0
-106 91 0
-106 -47 0
-106 -61 0
-106 -44 0
106 -46 14 -60 -36 -37 -56 -91 47 61 44 0
-107 50 0
-107 -87 0
-107 54 0
-107 11 0
-107 96 0
-107 89 0
-107 -60 0
-107 65 0
-107 8 0
-107 -91 0
107 -50 87 -54 -11 -96 -89 60 -65 -8 91 0
-108 -46 0
-108 42 0
-108 -85 0
-108 92 0
-108 -45 0
-108 99 0
-108 44 0
-108 -56 0
-108 -76 0
-108 -11 0
108 46 -42 85 -92 45 -99 -44 56 76 11 0
-109 35 0
-109 -19 0
-109 -90 0
-109 68 0
-109 -86 0
-109 -91 0
-109 -65 0
-109 -49 0
-109 73 0
-109 -92 0
109 -35 19 90 -68 86 91 65 49 -73 92 0
-110 -79 0
-110 76 0
-110 91 0
-110 50 0
-110 8 0
-110 -7 0
-110 -66 0
-110 43 0
-110 96 0
-110 -15 0
110 79 -76 -91 -50 -8 7 66 -43 -96 15 0
101 102 103 104 105 106 107 108 109 110 0
-111 -74 0
-111 -57 0
-111 11 0
-111 -69 0
-111 -68 0
-111 44 0
-111 -15 0
-111 -67 0
-111 -9 0
-111 60 0
111 74 57 -11 69 68 -44 15 67 9 -60 0
-112 4 0
-112 -12 0
-112 28 0
-112 97 0
-112 29 0
-112 -8 0
-112 -75 0
-112 -54 0
-112 47 0
-112 48 0
112 -4 12 -28 -97 -29 8 75 54 -47 -48 0
-113 -46 0
-113 -29 0
-113 -93 0
-113 -39 0
-113 -43 0
-113 -87 0
-113 -27 0
-113 55 0
-113 33 0
-113 90 0
113 46 29 93 39 43 87 27 -55 -33 -90 0
-114 -12 0
-114 3 0
-114 76 0
-114 -62 0
-114 1 0
-114 -85 0
-114 72 0
-114 30 0
-114 57 0
-114 10 0
114 12 -3 -76 62 -1 85 -72 -30 -57 -10 0
-115 -75 0
-115 2 0
-115 -85 0
-115 22 0
-115 6 0
-115 -61 0
-115 7 0
-115 43 0
-115 16 0
-115 94 0
115 75 -2 85 -22 -6 61 -7 -43 -16 -94 0
-116 -96 0
-116 -79 0
-116 -95 0
-116 -40 0
-116 32 0
-116 13 0
-116 92 0
-116 -11 0
-116 -2 0
-116 -69 0
116 96 79 95 40 -32 -13 -92 11 2 69 0
-117 64 0
-117 -78 0
-117 18 0
-117 -97 0
-117 -70 0
-117 85 0
-117 65 0
-117 -44 0
-117 38 0
-117 -2 0
117 -64 78 -18 97 70 -85 -65 44 -38 2 0
-118 -69 0
-118 34 0
-118 46 0
-118 -61 0
-118 75 0
-118 -32 0
-118 80 0
-118 6 0
-118 79 0
-118 -95 0
118 69 -34 -46 61 -75 32 -80 -6 -79 95 0
-119 -92 0
-119 -91 0
-119 48 0
-119 -94 0
-119 21 0
-119 16 0
-119 -77 0
-119 -34 0
-119 -61 0
-119 -85 0
119 92 91 -48 94 -21 -16 77 34 61 85 0
-120 -72 0
-120 -75 0
-120 -83 0
-120 -28 0
-120 52 0
-120 33 0
-120 34 0
-120 53 0
-120 96 0
-120 86 0
120 72 75 83 28 -52 -33 -34 -53 -96 -86 0
111 112 113 114 115 116 117 118 119 120 0
-121 7 0
-121 1 0
-121 -86 0
-121 5 0
-121 48 0
-121 33 0
-121 -83 0
-121 34 0
-121 -56 0
-121 55 0
121 -7 -1 86 -5 -48 -33 83 -34 56 -55 0
-122 39 0
-122 -69 0
-122 33 0
-122 50 0
-122 -94 0
-122 -12 0
-122 -65 0
-122 -57 0
-122 63 0
-122 62 0
122 -39 69 -33 -50 94 12 65 57 -63 -62 0
-123 -73 0
-123 93 0
-123 43 0
-123 92 0
-123 -83 0
-123 27 0
-123 -61 0
-123 -70 0
-123 85 0
-123 69 0
123 73 -93 -43 -92 83 -27 61 70 -85 -69 0
-124 26 0
-124 49 0
-124 -38 0
-124 71 0
-124 88 0
-124 68 0
-124 -73 0
-124 56 0
-124 -5 0
-124 92 0
124 -26 -49 38 -71 -88 -68 73 -56 5 -92 0
-125 -62 0
-125 -52 0
-125 63 0
-125 13 0
-125 90 0
-125 81 0
-125 2 0
-125 -45 0
-125 -76 0
-125 28 0
125 62 52 -63 -13 -90 -81 -2 45 76 -28 0
-126 -34 0
-126 98 0
-126 -37 0
-126 26 0
-126 -64 0
-126 42 0
-126 33 0
-126 -66 0
-126 -90 0
-126 -52 0
126 34 -98 37 -26 64 -42 -33 66 90 52 0
-127 36 0
-127 3 0
-127 -2 0
-127 -49 0
-127 -33 0
-127 91 0
-127 81 0
-127 -53 0
-127 35 0
-127 -92 0
127 -36 -3 2 49 33 -91 -81 53 -35 92 0
-128 -57 0
-128 -54 0
-128 48 0
-128 64 0
-128 -33 0
-128 -49 0
-128 88 0
-128 58 0
-128 85 0
-128 53 0
128 57 54 -48 -64 33 49 -88 -58 -85 -53 0
-129 -40 0
-129 5 0
-129 12 0
-129 6 0
-129 73 0
-129 -81 0
-129 -100 0
-129 43 0
-129 87 0
-129 14 0
129 40 -5 -12 -6 -73 81 100 -43 -87 -14 0
-130 30 0
-130 -73 0
-130 -52 0
-130 42 0
-130 -84 0
-130 -78 0
-130 -1 0
-130 49 0
-130 -80 0
-130 59 0
130 -30 73 52 -42 84 78 1 -49 80 -59 0
121 122 123 124 125 126 127 128 129 130 0
-131 -100 0
-131 42 0
-131 -75 0
-131 -1 0
-131 82 0
-131 9 0
-131 -81 0
-131 86 0
-131 10 0
-131 -64 0
131 100 -42 75 1 -82 -9 81 -86 -10 64 0
-132 -51 0
-132 29 0
-132 17 0
-132 67 0
-132 76 0
-132 -99 0
-132 96 0
-132 63 0
-132 37 0
-132 32 0
132 51 -29 -17 -67 -76 99 -96 -63 -37 -32 0
-133 -71 0
-133 -57 0
-133 -76 0
-133 85 0
-133 40 0
-133 51 0
-133 -88 0
-133 9 0
-133 63 0
-133 94 0
133 71 57 76 -85 -40 -51 88 -9 -63 -94 0
-134 -93 0
-134 -18 0
-134 -13 0
-134 -60 0
-134 -66 0
-134 -98 0
-134 82 0
-134 85 0
-134 -56 0
-134 -64 0
134 93 18 13 60 66 98 -82 -85 56 64 0
-135 -92 0
-135 8 0
-135 -57 0
-135 -26 0
-135 -15 0
-135 -61 0
-135 -63 0
-135 -98 0
-135 -13 0
-135 34 0
135 92 -8 57 26 15 61 63 98 13 -34 0
-136 33 0
-136 -31 0
-136 -97 0
-136 -27 0
-136 -71 0
-136 2 0
-136 -42 0
-136 -36 0
-136 55 0
-136 -72 0
136 -33 31 97 27 71 -2 42 36 -55 72 0
-137 -27 0
-137 -35 0
-137 -88 0
-137 80 0
-137 -46 0
-137 -24 0
-137 23 0
-137 75 0
-137 -54 0
-137 -47 0
137 27 35 88 -80 46 24 -23 -75 54 47 0
-138 -37 0
-138 -65 0
-138 2 0
-138 50 0
-138 6 0
-138 -94 0
-138 46 0
-138 93 0
-138 22 0
-138 12 0
138 37 65 -2 -50 -6 94 -46 -93 -22 -12 0
-139 7 0
-139 -67 0
-139 23 0
-139 9 0
-139 -36 0
-139 28 0
-139 96 0
-139 -75 0
-139 69 0
-139 -98 0
139 -7 67 -23 -9 36 -28 -96 75 -69 98 0
-140 -21 0
-140 78 0
-140 40 0
-140 98 0
-140 -85 0
-140 34 0
-140 -36 0
-140 90 0
-140 -2 0
-140 -71 0
140 21 -78 -40 -98 85 -34 36 -90 2 71 0
131 132 133 134 135 136 137 138 139 140 0
-141 47 0
-141 60 0
-141 55 0
-141 16 0
-141 70 0
-141 41 0
-141 -15 0
-141 -39 0
-141 52 0
-141 10 0
141 -47 -60 -55 -16 -70 -41 15 39 -52 -10 0
-142 -79 0
-142 -70 0
-142 95 0
-142 63 0
-142 73 0
-142 82 0
-142 -30 0
-142 72 0
-142 -54 0
-142 61 0
142 79 70 -95 -63 -73 -82 30 -72 54 -61 0
-143 -76 0
-143 56 0
-143 -85 0
-143 41 0
-143 67 0
-143 -54 0
-143 -79 0
-143 50 0
-143 51 0
-143 89 0
143 76 -56 85 -41 -67 54 79 -50 -51 -89 0
-144 -34 0
-144 85 0
-144 25 0
-144 -33 0
-144 41 0
-144 53 0
-144 -15 0
-144 73 0
-144 -7 0
-144 -71 0
144 34 -85 -25 33 -41 -53 15 -73 7 71 0
-145 -24 0
-145 12 0
-145 4 0
-145 95 0
-145 -18 0
-145 3 0
-145 34 0
-145 -6 0
-145 -37 0
-145 -82 0
145 24 -12 -4 -95 18 -3 -34 6 37 82 0
-146 -77 0
-146 -7 0
-146 -38 0
-146 -96 0
-146 89 0
-146 56 0
-146 -67 0
-146 -37 0
-146 98 0
-146 100 0
146 77 7 38 96 -89 -56 67 37 -98 -100 0
-147 88 0
-147 55 0
-147 -59 0
-147 -29 0
-147 5 0
-147 56 0
-147 -37 0
-147 33 0
-147 -91 0
-147 -40 0
147 -88 -55 59 29 -5 -56 37 -33 91 40 0
-148 -46 0
-148 -82 0
-148 -81 0
-148 -57 0
-148 -72 0
-148 -11 0
-148 53 0
-148 -91 0
-148 69 0
-148 -22 0
148 46 82 81 57 72 11 -53 91 -69 22 0
-149 -57 0
-149 86 0
-149 -75 0
-149 61 0
-149 -70 0
-149 -65 0
-149 23 0
-149 -15 0
-149 44 0
-149 -10 0
149 57 -86 75 -61 70 65 -23 15 -44 10 0
-150 -75 0
-150 82 0
-150 13 0
-150 -87 0
-150 18 0
-150 -49 0
-150 69 0
-150 -36 0
-150 -64 0
-150 17 0
150 75 -82 -13 87 -18 49 -69 36 64 -17 0
141 142 143 144 145 146 147 148 149 150 0
-151 -43 0
-151 -52 0
-151 75 0
-151 24 0
-151 26 0
-151 -60 0
-151 -68 0
-151 81 0
-151 87 0
-151 16 0
151 43 52 -75 -24 -26 60 68 -81 -87 -16 0
-152 -54 0
-152 -31 0
-152 -24 0
-152 70 0
-152 56 0
-152 -53 0
-152 58 0
-152 -39 0
-152 38 0
-152 -85 0
152 54 31 24 -70 -56 53 -58 39 -38 85 0
-153 -64 0
-153 83 0
-153 60 0
-153 -72 0
-153 -96 0
-153 45 0
-153 5 0
-153 95 0
-153 -7 0
-153 -6 0
153 64 -83 -60 72 96 -45 -5 -95 7 6 0
-154 14 0
-154 33 0
-154 -86 0
-154 59 0
-154 45 0
-154 -91 0
-154 -1 0
-154 85 0
-154 69 0
-154 -38 0
154 -14 -33 86 -59 -45 91 1 -85 -69 38 0
-155 49 0
-155 14 0
-155 -54 0
-155 -45 0
-155 -43 0
-155 99 0
-155 -75 0
-155 -29 0
-155 48 0
-155 -78 0
155 -49 -14 54 45 43 -99 75 29 -48 78 0
-156 62 0
-156 74 0
-156 -73 0
-156 -7 0
-156 -23 0
-156 -25 0
-156 -18 0
-156 24 0
-156 -83 0
-156 70 0
156 -62 -74 73 7 23 25 18 -24 83 -70 0
-157 28 0
-157 70 0
-157 -16 0
-157 17 0
-157 9 0
-157 71 0
-157 35 0
-157 90 0
-157 -36 0
-157 84 0
157 -28 -70 16 -17 -9 -71 -35 -90 36 -84 0
-158 28 0
-158 -47 0
-158 71 0
-158 -58 0
-158 65 0
-158 22 0
-158 -63 0
-158 -74 0
-158 -53 0
-158 -13 0
158 -28 47 -71 58 -65 -22 63 74 53 13 0
-159 -44 0
-159 3 0
-159 81 0
-159 99 0
-159 -39 0
-159 64 0
-159 -38 0
-159 -58 0
-159 -9 0
-159 100 0
159 44 -3 -81 -99 39 -64 38 58 9 -100 0
-160 -39 0
-160 -41 0
-160 -90 0
-160 92 0
-160 -25 0
-160 -57 0
-160 93 0
-160 45 0
-160 27 0
-160 -69 0
160 39 41 90 -92 25 57 -93 -45 -27 69 0
151 152 153 154 155 156 157 158 159 160 0
-161 80 0
-161 90 0
-161 -6 0
-161 42 0
-161 -65 0
-161 -23 0
-161 -24 0
-161 -40 0
-161 -12 0
-161 74 0
161 -80 -90 6 -42 65 23 24 40 12 -74 0
-162 19 0
-162 -82 0
-162 3 0
-162 -91 0
-162 70 0
-162 95 0
-162 -40 0
-162 -48 0
-162 79 0
-162 86 0
162 -19 82 -3 91 -70 -95 40 48 -79 -86 0
-163 79 0
-163 18 0
-163 83 0
-163 -10 0
-163 -38 0
-163 -66 0
-163 3 0
-163 -95 0
-163 97 0
-163 -50 0
163 -79 -18 -83 10 38 66 -3 95 -97 50 0
-164 -23 0
-164 54 0
-164 29 0
-164 -75 0
-164 71 0
-164 67 0
-164 -7 0
-164 63 0
-164 34 0
-164 17 0
164 23 -54 -29 75 -71 -67 7 -63 -34 -17 0
-165 -44 0
-165 62 0
-165 -53 0
-165 -71 0
-165 91 0
-165 2 0
-165 -63 0
-165 95 0
-165 -20 0
-165 12 0
165 44 -62 53 71 -91 -2 63 -95 20 -12 0
-166 23 0
-166 -75 0
-166 -28 0
-166 18 0
-166 -66 0
-166 -9 0
-166 96 0
-166 -85 0
-166 93 0
-166 68 0
166 -23 75 28 -18 66 9 -96 85 -93 -68 0
-167 97 0
-167 98 0
-167 -13 0
-167 47 0
-167 -11 0
-167 59 0
-167 -23 0
-167 -71 0
-167 80 0
-167 96 0
167 -97 -98 13 -47 11 -59 23 71 -80 -96 0
-168 -59 0
-168 -46 0
-168 -80 0
-168 -92 0
-168 -14 0
-168 -76 0
-168 -12 0
-168 -71 0
-168 61 0
-168 10 0
168 59 46 80 92 14 76 12 71 -61 -10 0
-169 -100 0
-169 -86 0
-169 31 0
-169 -66 0
-169 18 0
-169 -84 0
-169 -13 0
-169 8 0
-169 -79 0
-169 -45 0
169 100 86 -31 66 -18 84 13 -8 79 45 0
-170 96 0
-170 -1 0
-170 -90 0
-170 36 0
-170 65 0
-170 -100 0
-170 -94 0
-170 -44 0
-170 -38 0
-170 -6 0
170 -96 1 90 -36 -65 100 94 44 38 6 0
161 162 163 164 165 166 167 168 169 170 0
-171 50 0
-171 -29 0
-171 -48 0
-171 4 0
-171 -69 0
-171 85 0
-171 -3 0
-171 -66 0
-171 -7 0
-171 -88 0
171 -50 29 48 -4 69 -85 3 66 7 88 0
-172 -79 0
-172 -37 0
-172 -97 0
-172 -72 0
-172 27 0
-172 48 0
-172 -71 0
-172 10 0
-172 78 0
-172 73 0
172 79 37 97 72 -27 -48 71 -10 -78 -73 0
-173 28 0
-173 91 0
-173 24 0
-173 -90 0
-173 63 0
-173 -80 0
-173 -98 0
-173 61 0
-173 29 0
-173 -72 0
173 -28 -91 -24 90 -63 80 98 -61 -29 72 0
-174 -82 0
-174 -13 0
-174 15 0
-174 -74 0
-174 86 0
-174 -72 0
-174 -55 0
-174 37 0
-174 99 0
-174 76 0
174 82 13 -15 74 -86 72 55 -37 -99 -76 0
-175 -60 0
-175 -74 0
-175 52 0
-175 -48 0
-175 88 0
-175 -66 0
-175 -26 0
-175 -11 0
-175 79 0
-175 -78 0
175 60 74 -52 48 -88 66 26 11 -79 78 0
-176 3 0
-176 -1 0
-176 6 0
-176 36 0
-176 -9 0
-176 -66 0
-176 30 0
-176 -21 0
-176 54 0
-176 -44 0
176 -3 1 -6 -36 9 66 -30 21 -54 44 0
-177 -1 0
-177 -62 0
-177 -59 0
-177 37 0
-177 5 0
-177 17 0
-177 78 0
-177 -16 0
-177 82 0
-177 35 0
177 1 62 59 -37 -5 -17 -78 16 -82 -35 0
-178 38 0
-178 90 0
-178 30 0
-178 81 0
-178 -7 0
-178 -95 0
-178 -48 0
-178 21 0
-178 88 0
-178 -12 0
178 -38 -90 -30 -81 7 95 48 -21 -88 12 0
-179 87 0
-179 -43 0
-179 -15 0
-179 -60 0
-179 -49 0
-179 66 0
-179 57 0
-179 -10 0
-179 -31 0
-179 -90 0
179 -87 43 15 60 49 -66 -57 10 31 90 0
-180 96 0
-180 2 0
-180 -65 0
-180 -66 0
-180 87 0
-180 69 0
-180 92 0
-180 -85 0
-180 -41 0
-180 -27 0
180 -96 -2 65 66 -87 -69 -92 85 41 27 0
171 172 173 174 175 176 177 178 179 180 0
-181 60 0
-181 -79 0
-181 -27 0
-181 -35 0
-181 22 0
-181 33 0
-181 12 0
-181 90 0
-181 54 0
-181 45 0
181 -60 79 27 35 -22 -33 -12 -90 -54 -45 0
-182 100 0
-182 -70 0
-182 68 0
-182 38 0
-182 -5 0
-182 24 0
-182 43 0
-182 15 0
-182 53 0
-182 -97 0
182 -100 70 -68 -38 5 -24 -43 -15 -53 97 0
-183 -20 0
-183 44 0
-183 -10 0
-183 -31 0
-183 -71 0
-183 12 0
-183 98 0
-183 -61 0
-183 51 0
-183 -33 0
183 20 -44 10 31 71 -12 -98 61 -51 33 0
-184 -38 0
-184 -90 0
-184 39 0
-184 21 0
-184 -23 0
-184 -74 0
-184 48 0
-184 97 0
-184 -78 0
-184 62 0
184 38 90 -39 -21 23 74 -48 -97 78 -62 0
-185 -47 0
-185 42 0
-185 69 0
-185 86 0
-185 -14 0
-185 -9 0
-185 -65 0
-185 50 0
-185 -48 0
-185 28 0
185 47 -42 -69 -86 14 9 65 -50 48 -28 0
-186 49 0
-186 63 0
-186 -27 0
-186 57 0
-186 -69 0
-186 -97 0
-186 -30 0
-186 79 0
-186 -38 0
-186 -53 0
186 -49 -63 27 -57 69 97 30 -79 38 53 0
-187 -85 0
-187 -90 0
-187 -58 0
-187 93 0
-187 6 0
-187 77 0
-187 -23 0
-187 -100 0
-187 -79 0
-187 -15 0
187 85 90 58 -93 -6 -77 23 100 79 15 0
-188 -22 0
-188 97 0
-188 21 0
-188 -92 0
-188 5 0
-188 25 0
-188 -72 0
-188 94 0
-188 -51 0
-188 79 0
188 22 -97 -21 92 -5 -25 72 -94 51 -79 0
-189 85 0
-189 31 0
-189 44 0
-189 -9 0
-189 14 0
-189 87 0
-189 -55 0
-189 -62 0
-189 -38 0
-189 56 0
189 -85 -31 -44 9 -14 -87 55 62 38 -56 0
-190 62 0
-190 -68 0
-190 -23 0
-190 -56 0
-190 22 0
-190 -24 0
-190 -74 0
-190 82 0
-190 81 0
-190 10 0
190 -62 68 23 56 -22 24 74 -82 -81 -10 0
181 182 183 184 185 186 187 188 189 190 0
-191 -77 0
-191 84 0
-191 -41 0
-191 -29 0
-191 35 0
-191 -67 0
-191 94 0
-191 -20 0
-191 -93 0
-191 -80 0
191 77 -84 41 29 -35 67 -94 20 93 80 0
-192 97 0
-192 32 0
-192 96 0
-192 62 0
-192 -69 0
-192 41 0
-192 -70 0
-192 -43 0
-192 -76 0
-192 74 0
192 -97 -32 -96 -62 69 -41 70 43 76 -74 0
-193 61 0
-193 -25 0
-193 -62 0
-193 -74 0
-193 28 0
-193 -5 0
-193 -23 0
-193 -22 0
-193 -59 0
-193 56 0
193 -61 25 62 74 -28 5 23 22 59 -56 0
-194 -63 0
-194 -86 0
-194 -35 0
-194 -20 0
-194 5 0
-194 91 0
-194 -92 0
-194 -93 0
-194 -30 0
-194 -83 0
194 63 86 35 20 -5 -91 92 93 30 83 0
-195 -49 0
-195 -93 0
-195 -13 0
-195 -10 0
-195 12 0
-195 -6 0
-195 50 0
-195 -1 0
-195 -8 0
-195 16 0
195 49 93 13 10 -12 6 -50 1 8 -16 0
-196 17 0
-196 94 0
-196 33 0
-196 -9 0
-196 -30 0
-196 -25 0
-196 -43 0
-196 59 0
-196 4 0
-196 -63 0
196 -17 -94 -33 9 30 25 43 -59 -4 63 0
-197 -73 0
-197 87 0
-197 -16 0
-197 14 0
-197 -61 0
-197 -57 0
-197 -36 0
-197 85 0
-197 -74 0
-197 -56 0
197 73 -87 16 -14 61 57 36 -85 74 56 0
-198 41 0
-198 66 0
-198 49 0
-198 -12 0
-198 -83 0
-198 72 0
-198 64 0
-198 -19 0
-198 18 0
-198 -8 0
198 -41 -66 -49 12 83 -72 -64 19 -18 8 0
-199 75 0
-199 -43 0
-199 -77 0
-199 6 0
-199 57 0
-199 91 0
-199 -12 0
-199 11 0
-199 -4 0
-199 67 0
199 -75 43 77 -6 -57 -91 12 -11 4 -67 0
-200 -7 0
-200 18 0
-200 75 0
-200 59 0
-200 -79 0
-200 29 0
-200 -65 0
-200 -48 0
-200 -5 0
-200 -90 0
200 7 -18 -75 -59 79 -29 65 48 5 90 0
191 192 193 194 195 196 197 198 199 200 0
